NAME : rnd31_50.tsp.tsp.optbc.tour
TYPE : TOUR
DIMENSION : 50
TOUR_SECTION
1
39
18
31
24
43
49
35
4
19
11
16
12
25
37
8
13
36
27
26
2
6
28
29
3
42
23
20
15
32
44
41
48
50
30
22
47
17
46
34
45
38
5
10
33
9
7
40
21
14
-1